24 276 10
0 1 73113432.00
0 2 73113432.00
0 3 73113432.00
0 4 73113432.00
0 5 73113432.00
0 6 73113432.00
0 7 73113432.00
0 8 73113432.00
0 9 73113432.00
0 10 73113432.00
0 11 73113432.00
0 12 73113432.00
0 13 73113432.00
0 14 73113432.00
0 15 73113432.00
0 16 73113432.00
0 17 153044.00
0 18 73113432.00
0 19 729788.00
0 20 73113432.00
0 21 73113432.00
0 22 73113432.00
0 23 73113432.00
1 2 73113432.00
1 3 73113432.00
1 4 73113432.00
1 5 125761.00
1 6 73113432.00
1 7 73113432.00
1 8 73113432.00
1 9 73113432.00
1 10 2482300.00
1 11 73113432.00
1 12 73113432.00
1 13 73113432.00
1 14 73113432.00
1 15 73113432.00
1 16 73113432.00
1 17 73113432.00
1 18 73113432.00
1 19 73113432.00
1 20 73113432.00
1 21 73113432.00
1 22 73113432.00
1 23 73113432.00
2 3 73113432.00
2 4 73113432.00
2 5 73113432.00
2 6 73113432.00
2 7 73113432.00
2 8 73113432.00
2 9 73113432.00
2 10 73113432.00
2 11 435121.00
2 12 73113432.00
2 13 1559870.00
2 14 73113432.00
2 15 1174387.00
2 16 698621.00
2 17 73113432.00
2 18 73113432.00
2 19 73113432.00
2 20 73113432.00
2 21 1122384.00
2 22 73113432.00
2 23 73113432.00
3 4 73113432.00
3 5 73113432.00
3 6 73113432.00
3 7 73113432.00
3 8 73113432.00
3 9 73113432.00
3 10 73113432.00
3 11 73113432.00
3 12 73113432.00
3 13 73113432.00
3 14 73113432.00
3 15 73113432.00
3 16 73113432.00
3 17 73113432.00
3 18 73113432.00
3 19 73113432.00
3 20 403887.00
3 21 73113432.00
3 22 73113432.00
3 23 269721.00
4 5 73113432.00
4 6 73113432.00
4 7 73113432.00
4 8 367162.00
4 9 73113432.00
4 10 73113432.00
4 11 73113432.00
4 12 73113432.00
4 13 73113432.00
4 14 73113432.00
4 15 73113432.00
4 16 73113432.00
4 17 579731.00
4 18 73113432.00
4 19 73113432.00
4 20 73113432.00
4 21 73113432.00
4 22 73113432.00
4 23 341333.00
5 6 73113432.00
5 7 73113432.00
5 8 73113432.00
5 9 73113432.00
5 10 73113432.00
5 11 962960.00
5 12 2734671.00
5 13 73113432.00
5 14 73113432.00
5 15 73113432.00
5 16 73113432.00
5 17 73113432.00
5 18 73113432.00
5 19 73113432.00
5 20 73113432.00
5 21 73113432.00
5 22 73113432.00
5 23 73113432.00
6 7 456124.00
6 8 73113432.00
6 9 73113432.00
6 10 3046393.00
6 11 73113432.00
6 12 73113432.00
6 13 73113432.00
6 14 73113432.00
6 15 73113432.00
6 16 73113432.00
6 17 73113432.00
6 18 73113432.00
6 19 73113432.00
6 20 73113432.00
6 21 73113432.00
6 22 73113432.00
6 23 73113432.00
7 8 73113432.00
7 9 73113432.00
7 10 73113432.00
7 11 2734671.00
7 12 962960.00
7 13 73113432.00
7 14 73113432.00
7 15 73113432.00
7 16 73113432.00
7 17 73113432.00
7 18 73113432.00
7 19 73113432.00
7 20 73113432.00
7 21 73113432.00
7 22 73113432.00
7 23 73113432.00
8 9 73113432.00
8 10 73113432.00
8 11 73113432.00
8 12 73113432.00
8 13 73113432.00
8 14 73113432.00
8 15 73113432.00
8 16 73113432.00
8 17 73113432.00
8 18 73113432.00
8 19 73113432.00
8 20 73113432.00
8 21 73113432.00
8 22 999800.00
8 23 73113432.00
9 10 73113432.00
9 11 73113432.00
9 12 73113432.00
9 13 1537189.00
9 14 1559870.00
9 15 73113432.00
9 16 73113432.00
9 17 73113432.00
9 18 73113432.00
9 19 73113432.00
9 20 73113432.00
9 21 73113432.00
9 22 73113432.00
9 23 73113432.00
10 11 1503413.00
10 12 73113432.00
10 13 73113432.00
10 14 73113432.00
10 15 73113432.00
10 16 73113432.00
10 17 73113432.00
10 18 73113432.00
10 19 73113432.00
10 20 73113432.00
10 21 73113432.00
10 22 73113432.00
10 23 73113432.00
11 12 73113432.00
11 13 73113432.00
11 14 73113432.00
11 15 73113432.00
11 16 73113432.00
11 17 73113432.00
11 18 73113432.00
11 19 73113432.00
11 20 73113432.00
11 21 73113432.00
11 22 73113432.00
11 23 73113432.00
12 13 1000868.00
12 14 73113432.00
12 15 73113432.00
12 16 1862117.00
12 17 73113432.00
12 18 73113432.00
12 19 73113432.00
12 20 73113432.00
12 21 73113432.00
12 22 73113432.00
12 23 73113432.00
13 14 73113432.00
13 15 73113432.00
13 16 73113432.00
13 17 73113432.00
13 18 73113432.00
13 19 73113432.00
13 20 73113432.00
13 21 73113432.00
13 22 73113432.00
13 23 73113432.00
14 15 362802.00
14 16 73113432.00
14 17 545640.00
14 18 73113432.00
14 19 73113432.00
14 20 73113432.00
14 21 73113432.00
14 22 73113432.00
14 23 73113432.00
15 16 73113432.00
15 17 73113432.00
15 18 545640.00
15 19 73113432.00
15 20 73113432.00
15 21 73113432.00
15 22 73113432.00
15 23 73113432.00
16 17 73113432.00
16 18 73113432.00
16 19 73113432.00
16 20 73113432.00
16 21 73113432.00
16 22 1122384.00
16 23 73113432.00
17 18 362802.00
17 19 576744.00
17 20 73113432.00
17 21 73113432.00
17 22 73113432.00
17 23 73113432.00
18 19 73113432.00
18 20 576744.00
18 21 73113432.00
18 22 73113432.00
18 23 73113432.00
19 20 362802.00
19 21 73113432.00
19 22 73113432.00
19 23 496968.00
20 21 1174387.00
20 22 73113432.00
20 23 73113432.00
21 22 698621.00
21 23 73113432.00
22 23 73113432.00
0
1
2
3
4
5
6
7
8
9
